p cnf 883 2249
c ind 858 725 870 874 850 852 853 871 835 861 0
c ind 878 727 879 875 876 824 829 880 864 830 0
c ind 840 863 877 865 867 873 881 862 854 855 0
c ind 869 837 860 810 836 859 729 832 849 868 0
c ind 872 815 731 812 866 747 811 743 744 764 0
c ind 778 808 765 783 847 780 737 732 736 851 0
c ind 734 779 733 746 735 838 848 817 768 841 0
c ind 842 771 819 846 816 831 784 794 845 791 0
c ind 826 827 828 820 823 752 825 793 839 857 0
c ind 856 753 792 795 818 844 787 821 843 813 0
c ind 755 758 822 807 798 757 796 814 781 775 0
c ind 772 776 833 800 797 760 769 802 801 834 0
c ind 799 805 738 748 804 782 777 806 759 770 0
c ind 803 751 742 773 790 774 726 741 750 763 0
c ind 761 745 789 739 785 788 762 740 749 756 0
c ind 809 766 786 754 728 767 730 1 0
c ret 523 649 650 651 652 653 654 655 524 656 0
c ret 657 561 562 658 659 660 661 662 663 664 0
c ret 563 665 666 525 667 668 669 670 671 672 0
c ret 673 564 526 565 674 675 676 677 678 679 0
c ret 680 681 682 683 684 685 686 527 687 688 0
c ret 689 690 691 692 693 694 695 528 529 566 0
c ret 530 696 697 698 567 699 568 700 701 702 0
c ret 703 569 704 705 706 707 708 531 709 710 0
c ret 711 712 713 714 715 716 717 718 719 720 0
c ret 721 722 723 724 515 532 570 571 572 533 0
c ret 534 535 573 536 574 537 575 576 577 538 0
c ret 516 539 540 578 579 580 581 582 583 541 0
c ret 584 542 585 586 587 543 588 589 544 590 0
c ret 545 591 592 546 517 593 594 595 596 597 0
c ret 598 599 600 601 547 548 549 550 602 551 0
c ret 603 604 518 552 553 605 554 606 607 608 0
c ret 609 519 610 611 612 613 614 615 616 617 0
c ret 618 520 619 620 621 622 623 624 625 626 0
c ret 555 627 628 556 629 630 557 521 558 631 0
c ret 632 633 634 635 636 559 637 638 560 639 0
c ret 640 522 641 642 643 644 645 646 647 648 0
2 -195 -202 0
2 -3 -182 -202 0
-2 202 0
-2 3 195 0
-2 182 195 0
3 -4 -59 -94 -105 0
-3 105 0
-3 4 0
-3 94 0
-3 59 0
4 -5 -7 0
4 -7 -671 0
-4 7 0
-4 5 671 0
5 -6 521 523 0
-5 6 0
-5 -523 0
-5 -521 0
6 525 540 0
-6 -525 0
-6 -540 0
7 8 29 -38 0
-7 38 0
-7 -29 0
-7 -8 0
8 9 10 0
8 10 -521 0
8 10 -523 0
-8 -10 0
-8 -9 521 523 0
9 525 544 0
-9 -525 0
-9 -544 0
10 -24 -521 0
10 11 521 0
-10 -11 521 0
-10 24 -521 0
11 -12 523 0
11 -22 -523 0
-11 22 -523 0
-11 12 523 0
12 15 -525 0
12 -13 15 0
-12 -15 0
-12 13 525 0
13 -543 -564 0
13 -14 -564 -565 0
-13 564 0
-13 543 565 0
-13 14 543 0
14 -536 -537 0
-14 536 0
-14 537 0
13 15 16 -525 0
15 -16 -525 593 0
-15 525 0
-15 -16 -593 0
-13 -15 16 0
16 17 544 0
-16 -544 0
-16 -17 0
17 18 -594 0
-17 594 0
-17 -18 0
18 19 597 0
18 19 598 0
-18 -19 0
-18 -597 -598 0
19 20 -21 544 594 0
-19 21 0
-19 -20 0
-19 -544 0
-19 -594 0
20 545 554 -601 0
-20 601 0
-20 -554 0
-20 -545 0
21 -595 597 598 0
-21 595 0
-21 -598 0
-21 -597 0
-12 22 23 0
22 -23 -618 0
12 -22 23 0
-22 -23 618 0
-9 17 23 0
9 -23 0
-17 -23 0
24 -25 644 0
11 24 25 0
-24 -25 -644 0
-11 -24 25 0
25 -26 -27 0
25 -26 -28 594 0
-25 26 0
-25 27 -594 0
-25 27 28 0
-9 26 523 0
-26 -523 0
9 -26 0
-18 27 594 0
-18 27 544 0
18 -27 0
-27 -544 -594 0
28 523 525 0
-28 -523 0
-28 -525 0
29 -30 -31 0
29 -30 32 -535 0
-29 30 0
-29 31 -32 0
-29 31 535 0
30 521 523 525 0
-30 -521 0
-30 -525 0
-30 -523 0
31 -570 571 -572 0
-31 570 0
-31 -571 0
-31 572 0
32 -521 -649 0
32 33 521 0
-32 -521 649 0
-32 -33 521 0
33 -523 626 0
33 -34 523 0
-33 -523 -626 0
-33 34 523 0
34 -525 602 0
34 -35 525 0
-34 -525 -602 0
-34 35 525 0
35 36 37 0
35 36 -557 -558 0
-35 -36 0
-35 -37 557 0
-35 -37 558 0
36 -533 -555 0
36 -533 -556 0
-36 533 0
-36 555 556 0
37 534 -555 -556 0
-37 556 0
-37 555 0
-37 -534 0
38 -39 55 0
38 53 55 0
-38 -55 0
-38 39 -53 0
39 -40 -47 0
39 -47 652 0
-39 47 0
-39 40 -652 0
40 -521 652 0
40 -41 521 0
-40 -521 -652 0
-40 41 521 0
41 -523 629 0
41 -42 523 0
-41 -523 -629 0
-41 42 523 0
42 43 525 0
42 43 604 0
-42 -43 0
-42 -525 -604 0
43 44 525 0
-43 -525 0
-43 -44 0
44 -46 551 0
44 -46 -562 0
44 45 -46 0
-44 46 0
-44 -45 -551 562 0
45 581 583 584 -585 0
-45 585 0
-45 -584 0
-45 -581 0
-45 -583 0
46 583 584 0
46 562 581 0
46 581 584 0
46 562 583 0
-46 -581 -583 0
-46 -562 -584 0
47 -48 659 0
47 -49 521 659 0
-47 -659 0
-47 48 -521 0
-47 48 49 0
48 629 651 0
-48 -629 0
-48 -651 0
49 -50 -523 0
49 -51 523 0
-49 51 523 0
-49 50 -523 0
50 604 628 0
-50 -604 0
-50 -628 0
51 -52 525 0
-51 -525 0
-51 52 0
52 -562 581 0
52 562 580 0
-52 562 -580 0
-52 -562 -581 0
53 -54 660 0
53 652 660 0
-53 -660 0
-53 54 -652 0
-48 54 -521 0
-49 54 521 0
49 -54 521 0
48 -54 -521 0
55 57 661 0
55 56 58 661 0
-55 -661 0
-55 -56 -57 0
-55 -57 -58 0
56 561 562 0
56 549 -562 0
-56 -561 562 0
-56 -549 -562 0
-56 57 -652 0
57 652 663 0
-57 652 -663 0
56 -57 -652 0
-48 58 662 0
-58 -662 0
48 -58 0
8 59 -60 -70 0
-59 70 0
-59 60 0
-8 -59 0
60 61 62 63 -67 0
-60 67 0
-60 -63 0
-60 -61 0
-60 -62 0
-11 61 -523 0
9 -11 61 0
11 -61 0
-9 -61 523 0
-28 -31 62 0
-28 -33 62 -535 0
28 -62 0
31 33 -62 0
31 -62 535 0
63 -64 -66 0
-63 64 0
-63 66 0
64 65 523 0
-64 -523 0
-64 -65 0
-51 65 604 611 0
43 -51 65 611 0
51 -65 0
-65 -611 0
-43 -65 -604 0
-51 66 612 0
66 604 612 0
-66 -612 0
51 -66 -604 0
67 -68 -69 0
67 -69 -632 0
-67 69 0
-67 68 632 0
-6 68 523 0
-68 -523 0
6 -68 0
69 -613 0
-56 69 -604 0
-56 69 614 0
56 -69 613 0
-69 604 613 -614 0
29 61 70 -71 -93 0
-29 -70 0
-70 93 0
-70 71 0
-61 -70 0
71 -72 -80 -90 -92 0
-71 92 0
-71 72 0
-71 90 0
-71 80 0
72 -73 -76 0
72 -73 78 0
-72 73 0
-72 76 -78 0
73 -638 0
-56 73 -74 0
73 -74 -75 0
-73 74 638 0
56 -73 75 638 0
-56 74 -629 0
74 629 640 0
-74 629 -640 0
56 -74 -629 0
-50 75 639 0
-75 -639 0
50 -75 0
76 77 629 636 0
-41 76 77 636 0
-76 -77 0
-76 -636 0
41 -76 -629 0
49 50 77 0
-50 -77 0
-49 -77 0
78 -79 521 0
-78 -521 0
-78 79 0
-49 79 637 0
79 629 637 0
-79 -637 0
49 -79 -629 0
80 82 -84 -638 0
80 -81 82 -84 0
-80 84 0
-80 -82 0
-80 81 638 0
-56 81 -604 0
81 604 614 0
-81 604 -614 0
56 -81 -604 0
-76 82 83 0
76 -82 0
-82 -83 0
-66 83 523 0
-83 -523 0
66 -83 0
84 85 -86 -521 0
84 85 -86 89 0
-84 86 0
-84 -85 0
-84 -89 521 0
56 75 85 638 0
-85 -638 0
-75 -85 0
-56 -85 0
74 86 -88 -655 0
74 86 -87 -88 0
-86 88 0
-74 -86 0
-86 87 655 0
87 521 641 0
-87 -521 0
-87 -641 0
88 -520 -635 -653 654 0
-88 653 0
-88 -654 0
-88 520 0
-88 635 0
68 89 641 0
-89 -641 0
-68 -89 0
-76 90 91 0
79 90 91 0
-90 -91 0
76 -79 -90 0
74 91 638 0
-91 -638 0
-74 -91 0
62 89 92 0
-62 -92 0
-89 -92 0
89 -90 93 0
-89 -93 0
90 -93 0
-38 39 94 -95 0
-38 -78 94 -95 0
-94 95 0
38 -94 0
-39 78 -94 0
95 -96 -100 0
95 -100 519 0
-95 100 0
-95 96 -519 0
96 -99 -521 -667 0
96 -97 -99 521 0
-96 99 0
-96 -521 667 0
-96 97 521 0
97 -523 -646 0
97 -98 523 0
-97 98 523 0
-97 -523 646 0
98 -525 -622 0
98 525 -623 0
-98 525 623 0
-98 -525 622 0
99 572 -620 0
99 -620 -621 0
-99 620 0
-99 -572 621 0
57 100 -101 -661 0
57 -74 100 -101 0
-100 101 0
-57 -100 0
74 -100 661 0
101 -102 104 -518 670 0
101 -102 104 518 -670 0
-101 -104 0
-101 518 670 0
-101 102 0
-101 -518 -670 0
102 -103 -658 -664 -671 0
-102 103 0
-102 658 0
-102 671 0
-102 664 0
103 -669 670 0
-103 669 0
-103 -670 0
-28 104 521 0
-104 -521 0
28 -104 0
-7 105 -106 -664 0
-5 -7 105 -106 0
-105 106 0
7 -105 0
5 -105 664 0
96 106 -109 0
106 107 -109 -519 0
-106 109 0
-96 -106 -107 0
-96 -106 519 0
-10 107 -108 661 0
-10 -39 107 -108 0
-107 108 0
10 -107 0
39 -107 -661 0
32 108 668 0
-108 -668 0
-32 -108 0
8 109 110 -118 -181 0
-8 -109 0
-109 181 0
-109 118 0
-109 -110 0
24 110 -521 0
110 -111 116 0
110 116 -521 0
24 110 -111 0
-110 111 521 0
-24 -110 -116 0
111 112 115 0
11 111 112 -114 0
-111 -112 0
-11 -111 -115 0
-111 114 -115 0
-28 112 645 648 0
28 112 113 645 -648 0
-28 -112 -648 0
28 -112 -113 0
-112 -645 0
28 -112 648 0
-97 -99 113 0
97 -113 0
99 -113 0
-33 -76 114 647 0
-33 114 638 647 0
33 -114 0
-114 -647 0
76 -114 -638 0
28 -113 115 -645 0
-115 645 0
-28 -115 0
113 -115 0
-73 -92 -93 116 -117 0
-116 117 0
73 -116 0
93 -116 0
92 -116 0
-28 31 117 -521 0
-117 521 0
28 -117 0
-31 -117 0
-60 118 119 -132 -174 0
-118 174 0
60 -118 0
-118 132 0
-118 -119 0
-22 119 -120 0
119 125 -523 0
-22 119 -523 0
119 -120 125 0
22 -119 -125 0
-119 120 523 0
120 121 124 0
12 120 121 -123 0
-120 -121 0
-12 -120 -124 0
-120 123 -124 0
121 525 619 625 0
121 122 -525 619 -625 0
-121 -525 625 0
-121 -122 -625 0
-121 -619 0
-121 525 -625 0
-99 122 -525 -622 0
-99 122 525 -623 0
99 -122 0
-122 -525 622 0
-122 525 623 0
-34 -65 123 624 0
-34 123 613 624 0
34 -123 0
-123 -624 0
65 -123 -613 0
-122 124 -525 -619 0
-124 525 0
-124 619 0
122 -124 0
-69 125 -126 -128 -131 0
-125 131 0
69 -125 0
-125 128 0
-125 126 0
-65 126 127 0
66 126 127 0
-126 -127 0
65 -66 -126 0
81 127 613 0
-127 -613 0
-81 -127 0
128 129 -525 0
128 129 -130 0
-128 -129 0
-128 130 525 0
6 129 615 0
-129 -615 0
-6 -129 0
31 35 130 0
31 130 535 0
-31 -130 0
-35 -130 -535 0
31 129 131 -523 525 0
-129 -131 0
-31 -131 0
-131 523 0
-131 -525 0
132 -133 140 -143 -165 0
-132 165 0
-132 133 0
-132 143 0
-132 -140 0
12 133 134 -138 0
-9 133 134 -138 0
-133 138 0
-133 -134 0
9 -12 -133 0
130 134 525 0
134 -135 525 0
-134 -525 0
-130 -134 135 0
135 136 -137 0
-135 -136 0
-135 137 0
-44 136 579 0
-136 -579 0
44 -136 0
-52 137 586 0
-137 -586 0
52 -137 0
138 139 -607 0
-6 138 139 0
-138 -139 0
6 -138 607 0
56 139 587 0
-139 -587 0
-56 -139 0
140 142 -525 0
15 140 -525 0
140 141 -525 0
-140 525 0
-15 -140 -141 -142 0
135 141 -587 0
-56 135 141 0
-135 -141 0
56 -141 587 0
-130 142 -590 0
-130 142 540 0
130 -142 0
-142 -540 590 0
143 -144 158 -159 -163 0
-143 163 0
-143 144 0
-143 159 0
-143 -158 0
144 -145 156 540 0
144 -145 -154 156 0
-144 145 0
-144 -156 0
-144 154 -540 0
145 -146 -149 152 -153 0
-145 153 0
-145 146 0
-145 149 0
-145 -152 0
146 -147 -575 0
146 -147 540 566 0
-146 147 0
-146 -566 575 0
-146 -540 575 0
147 148 544 0
147 148 -536 0
147 148 -547 0
-147 -148 0
-147 536 -544 547 0
148 536 545 0
148 -536 537 0
-148 -536 -537 0
-148 536 -545 0
149 150 -151 540 0
149 150 -151 -566 0
-149 151 0
-149 -150 0
-149 -540 566 0
150 545 554 0
-150 -545 0
-150 -554 0
151 -526 552 0
151 -551 -574 0
151 -526 -551 0
151 552 -574 0
-151 551 -552 0
-151 526 574 0
152 536 543 -544 0
-152 544 0
-152 -543 0
-152 -536 0
153 -553 -573 574 0
-153 553 0
-153 573 0
-153 -574 0
154 155 -539 -559 0
154 155 538 -559 0
-154 559 0
-154 -155 0
-154 -538 539 0
155 541 -542 0
155 541 560 0
-155 -541 0
-155 542 -560 0
156 -157 -528 0
156 -528 530 -532 0
-156 528 0
-156 157 -530 0
-156 157 532 0
157 -527 529 -530 531 0
-157 530 0
-157 -531 0
-157 527 0
-157 -529 0
-13 158 -544 0
-158 544 0
13 -158 0
159 -160 563 0
-56 159 -160 0
159 -160 -548 0
-159 160 0
56 -159 548 -563 0
160 162 543 0
160 161 162 0
160 162 536 0
-160 -162 0
-160 -161 -536 -543 0
161 -544 -545 546 0
-161 544 0
-161 545 0
-161 -546 0
162 548 -553 0
162 548 -549 -550 0
-162 -548 0
-162 549 553 0
-162 550 553 0
31 163 535 0
31 35 163 164 0
-31 -163 0
-163 -164 -535 0
-35 -163 -535 0
164 533 -534 0
-164 -533 0
-164 534 0
-141 165 -166 551 0
-141 165 -166 173 0
-165 166 0
141 -165 0
-165 -173 -551 0
166 -169 -587 0
166 -167 -169 553 0
-166 169 0
-166 -553 587 0
-166 167 587 0
167 -168 588 0
-167 -588 0
-167 168 0
168 582 583 0
168 -562 583 0
168 550 562 -583 0
-168 -550 -583 0
-168 -562 -583 0
-168 562 -582 583 0
-130 158 169 -170 0
130 -169 0
-158 -169 0
-169 170 0
137 170 171 -172 0
170 171 -172 551 0
-170 172 0
-170 -171 0
-137 -170 -551 0
171 -540 590 0
171 -590 607 0
171 -525 607 0
-171 540 -607 0
-171 -590 -607 0
-171 525 540 590 0
56 172 -578 -605 606 0
-172 605 0
-56 -172 0
-172 578 0
-172 -606 0
-52 -136 173 0
-136 -168 173 0
136 -173 0
52 168 -173 0
62 -126 -133 174 -175 0
-62 -174 0
-174 175 0
133 -174 0
126 -174 0
65 -128 175 -176 0
-128 -137 175 -176 0
-175 176 0
128 -175 0
-65 137 -175 0
81 129 176 -177 -179 0
-81 -176 0
-176 179 0
-176 177 0
-129 -176 0
177 -178 -632 0
177 -178 523 615 0
-177 178 0
-177 -615 632 0
-177 -523 632 0
178 524 -606 0
178 -524 606 0
-178 -524 -606 0
-178 524 606 0
-56 179 -180 0
179 -180 -613 0
-179 180 0
56 -179 613 0
180 -522 -610 -630 631 0
-180 630 0
-180 -631 0
-180 522 0
-180 610 0
29 -72 181 -655 0
-5 29 -72 181 0
72 -181 0
-29 -181 0
5 -181 655 0
-4 96 182 -187 0
-4 182 -183 -187 0
-182 187 0
4 -182 0
-96 -182 183 0
183 184 -517 0
10 183 -517 0
-183 517 0
-10 -183 -184 0
32 184 -185 685 0
32 184 679 685 0
-32 -184 0
-184 -685 0
-184 185 -679 0
185 186 675 677 0
-40 185 186 675 0
-185 -675 0
-185 -186 0
40 -185 -677 0
54 186 -652 0
54 186 -676 0
-54 -186 0
-186 652 676 0
185 187 -188 194 0
-53 -185 187 -188 0
-187 188 0
53 -185 -187 0
185 -187 -194 0
29 188 -189 517 0
29 -96 188 -189 0
-188 189 0
-29 -188 0
96 -188 -517 0
189 190 -191 -192 -193 0
-189 -190 0
-189 193 0
-189 192 0
-189 191 0
-56 190 -677 0
190 677 681 0
-190 677 -681 0
56 -190 -677 0
191 -515 -679 0
-191 515 0
-191 679 0
192 -516 -674 -682 -686 0
-192 686 0
-192 516 0
-192 682 0
-192 674 0
30 193 687 -688 691 0
-193 688 0
-30 -193 0
-193 -687 0
-193 -691 0
-54 194 678 0
194 677 678 0
-194 -678 0
54 -194 -677 0
195 -196 692 0
-3 195 -196 674 0
-195 196 0
3 -195 -692 0
-195 -674 -692 0
196 -198 515 0
196 -197 515 0
196 515 -692 0
-196 -515 0
-196 197 198 692 0
-59 -109 197 658 -693 0
-197 -658 0
109 -197 0
59 -197 0
-197 693 0
198 -201 693 0
198 199 -200 693 0
-198 -693 0
-198 -199 201 0
-198 200 201 0
199 -610 -695 0
132 199 -695 0
178 199 -695 0
-199 695 0
-132 -178 -199 610 0
200 694 -695 0
-143 200 578 694 0
-200 -694 0
-200 -578 695 0
143 -200 695 0
-118 201 635 -694 0
118 -201 0
-201 694 0
-201 -635 0
202 219 -494 0
202 -203 -494 -709 0
202 203 -494 709 0
-202 494 0
-202 -203 -219 709 0
-202 203 -219 -709 0
203 204 217 0
203 204 726 0
203 -217 -726 849 0
-203 -204 726 0
-203 -217 -726 -849 0
-203 -204 217 0
204 214 -728 0
204 -205 214 0
-204 -214 0
-204 205 728 0
205 -206 730 0
205 -208 -730 -798 0
205 -206 208 0
-205 206 208 0
-205 206 730 0
-205 -208 -730 798 0
206 -748 -769 0
206 -207 -769 0
-206 769 0
-206 207 748 0
207 -741 -742 -770 0
-207 741 0
-207 742 0
-207 770 0
208 209 749 0
-208 -749 0
-208 -209 0
209 210 -799 0
-209 799 0
-209 -210 0
210 211 802 0
210 211 803 0
-210 -211 0
-210 -802 -803 0
211 212 -213 749 799 0
-211 213 0
-211 -212 0
-211 -749 0
-211 -799 0
212 750 759 -806 0
-212 806 0
-212 -759 0
-212 -750 0
213 -800 802 803 0
-213 800 0
-213 -803 0
-213 -802 0
214 215 -728 0
-214 728 0
-214 -215 0
-205 215 216 0
215 -216 -823 0
205 -215 216 0
-215 -216 823 0
209 216 730 749 0
-216 -730 0
-209 -216 0
-216 -749 0
-208 217 -218 0
208 -217 0
-217 218 0
218 728 730 0
-218 -728 0
-218 -730 0
-203 219 -221 -484 0
219 -220 -221 -484 0
-219 484 0
-219 221 0
203 -219 220 0
220 726 728 730 749 0
-220 -749 0
-220 -730 0
-220 -726 0
-220 -728 0
221 222 -250 -260 0
221 -238 -250 -260 0
-221 260 0
-221 250 0
-221 -222 238 0
-185 222 -515 0
222 -223 515 0
-222 223 515 0
185 -222 -515 0
-39 223 -692 0
223 -230 692 0
223 -224 692 0
39 -223 -692 0
-223 224 230 692 0
224 229 521 -693 0
224 -225 229 -693 0
-224 693 0
-224 -229 0
-224 225 -521 0
-48 225 226 0
-75 225 226 652 0
-225 -226 0
48 -225 -652 0
48 75 -225 0
226 -227 -650 0
-226 650 0
-226 227 0
-41 227 228 0
227 228 652 0
-227 -228 0
41 -227 -652 0
48 49 228 0
-48 -228 0
-49 -228 0
76 227 229 0
76 229 521 0
-76 -229 0
-227 -229 -521 0
230 -231 693 0
230 235 -237 693 0
-230 -693 0
-230 231 237 0
-230 231 -235 0
231 232 552 694 0
231 232 694 -695 0
-231 -232 0
-231 -694 0
-231 -552 695 0
232 233 -525 -695 0
173 232 233 -695 0
-232 695 0
-232 -233 0
-173 -232 525 0
-52 -167 233 -234 0
-167 -173 233 -234 0
-233 234 0
167 -233 0
52 173 -233 0
52 234 604 0
234 -525 603 604 0
-234 -604 0
-52 -234 525 0
-52 -234 -603 0
65 235 -236 -523 0
235 236 -523 -627 0
-235 523 0
-235 236 627 0
-65 -235 -236 0
42 236 -629 0
-236 629 0
-42 -236 0
-65 237 523 -694 0
-50 237 -523 -694 0
-237 694 0
50 -237 -523 0
65 -237 523 0
238 245 857 864 0
238 -239 245 864 0
-238 -245 0
-238 -864 0
-238 239 -857 0
239 -726 857 0
239 -240 726 0
-239 -726 -857 0
-239 240 726 0
240 -728 834 0
240 -241 728 0
-240 -728 -834 0
-240 241 728 0
241 -730 809 0
241 -242 730 0
-241 -730 -809 0
-241 242 730 0
242 -244 756 0
242 -244 -767 0
242 243 -244 0
-242 244 0
-242 -243 -756 767 0
243 786 788 789 -790 0
-243 790 0
-243 -789 0
-243 -786 0
-243 -788 0
244 788 789 0
244 767 786 0
244 786 789 0
244 767 788 0
-244 -786 -788 0
-244 -767 -789 0
245 246 -834 0
245 246 -856 0
-245 -246 0
-245 834 856 0
246 247 726 0
246 -726 834 856 0
-246 -726 -834 0
-246 -247 726 0
-246 -726 -856 0
247 -728 -809 0
247 248 728 0
247 -728 -833 0
-247 -248 728 0
-247 -728 809 833 0
248 -249 730 0
-248 -730 0
-248 249 0
249 -767 786 0
249 767 785 0
-249 767 -785 0
-249 -767 -786 0
250 251 -257 258 0
250 -251 257 258 0
-250 -258 0
-250 251 257 0
-250 -251 -257 0
194 251 -515 0
251 -252 515 0
-194 -251 -515 0
-251 252 515 0
53 252 -692 0
252 -253 692 0
-53 -252 -692 0
-252 253 692 0
78 253 -693 0
253 254 256 693 0
-78 -253 -693 0
-253 -256 693 0
-253 -254 693 0
254 -255 694 -695 0
254 551 694 695 0
-254 -694 0
-254 -551 695 0
-254 255 -695 0
-51 255 586 0
-255 -586 0
51 -255 0
-83 256 -694 0
-256 694 0
83 -256 0
-246 257 865 0
257 857 865 0
-257 -865 0
246 -257 -857 0
214 258 -728 0
214 258 -259 0
-214 -258 0
-258 259 728 0
-205 259 -749 0
-205 259 -730 0
205 -259 0
-259 730 749 0
260 -272 -284 0
260 261 -284 728 0
-260 284 0
-260 -261 272 0
-260 272 -728 0
261 262 271 0
205 261 262 -265 0
-261 -262 0
-205 -261 -271 0
-261 265 -271 0
262 730 824 830 0
262 263 -730 824 -830 0
-262 -730 830 0
-262 -263 -830 0
-262 -824 0
-262 730 -830 0
263 -264 -730 -827 0
263 -264 730 -828 0
-263 264 0
-263 -730 827 0
-263 730 828 0
264 777 -825 0
264 -825 -826 0
-264 825 0
-264 -777 826 0
265 -267 818 829 0
265 -266 -267 829 0
-265 267 0
-265 -829 0
-265 266 -818 0
-248 266 809 816 0
-241 -248 266 816 0
248 -266 0
-266 -816 0
241 -266 -809 0
267 -730 807 0
267 -268 730 0
-267 -730 -807 0
-267 268 730 0
268 269 738 0
268 269 760 761 0
-268 -269 0
-268 -738 -761 0
-268 -738 -760 0
269 270 739 -760 -761 0
-269 -739 0
-269 -270 0
-269 761 0
-269 760 0
270 -762 -763 0
-270 762 0
-270 763 0
-263 271 -730 -824 0
-271 730 0
-271 824 0
263 -271 0
215 272 -273 278 -282 0
-272 273 0
-272 -278 0
-215 -272 0
-272 282 0
273 274 277 0
-266 273 274 0
-273 -274 0
266 -273 -277 0
274 275 818 0
-274 -818 0
-274 -275 0
275 -276 -809 0
275 809 819 0
-275 809 -819 0
-275 276 -809 0
276 766 767 0
276 754 -767 0
-276 -766 767 0
-276 -754 -767 0
-248 277 817 0
277 809 817 0
-277 -817 0
248 -277 -809 0
278 279 730 0
-278 -730 0
-278 -279 0
279 280 281 0
-279 -280 0
-279 -281 0
-268 280 -740 0
-280 740 0
268 -280 0
281 -775 776 -777 0
-281 775 0
-281 -776 0
-281 777 0
-276 282 -283 0
282 -283 -818 0
-282 283 0
276 -282 818 0
283 -728 730 745 0
283 -728 730 -820 0
-283 728 0
-283 -730 0
-283 -745 820 0
284 -285 -345 -356 -363 0
-284 363 0
-284 285 0
-284 356 0
-284 345 0
259 285 -286 -305 340 0
-259 -285 0
-285 -340 0
-285 305 0
-285 286 0
286 -287 294 -299 -300 0
286 -287 -294 299 -300 0
-286 300 0
-286 -294 -299 0
-286 287 0
-286 294 299 0
287 288 290 0
287 288 -291 0
-287 -288 0
-287 -290 291 0
288 289 843 0
-288 -843 0
-288 -289 0
-276 289 -834 0
289 834 845 0
-289 834 -845 0
276 -289 -834 0
247 290 842 0
290 834 842 0
-290 -842 0
-247 -290 -834 0
291 292 834 841 0
-240 291 292 841 0
-291 -292 0
-291 -841 0
240 -291 -834 0
292 293 -809 0
292 293 -833 0
-292 -293 0
-292 809 833 0
-248 293 728 0
-293 -728 0
248 -293 0
294 295 296 0
294 296 -680 0
294 296 515 0
-294 -296 0
-294 -295 -515 680 0
295 652 676 0
-295 -652 0
-295 -676 0
296 -297 515 692 0
-58 296 515 -692 0
-296 -515 0
58 -296 -692 0
-296 297 692 0
-75 297 -693 0
297 -298 693 0
-297 298 693 0
75 -297 -693 0
-167 298 694 -695 0
298 563 694 695 0
-298 -694 0
-298 -563 695 0
167 -298 -695 0
299 834 856 867 0
-299 -834 0
-299 -867 0
-299 -856 0
300 301 303 0
-300 -301 0
-300 -303 0
301 302 846 0
301 -728 846 0
-301 -846 0
-301 -302 728 0
302 730 745 0
-302 -730 0
-302 -745 0
-218 -281 303 0
-218 303 -304 -740 0
218 -303 0
281 -303 304 0
281 -303 740 0
304 -728 831 0
-267 304 728 0
-304 -728 -831 0
267 -304 728 0
305 -306 -311 -316 866 0
305 306 -311 -316 -866 0
-305 316 0
-305 306 866 0
-305 311 0
-305 -306 -866 0
306 -310 515 0
306 -515 679 0
306 -307 515 0
-306 -515 -679 0
-306 307 310 515 0
307 308 692 693 0
307 638 692 -693 0
-307 -692 0
-307 -308 693 0
-307 -638 -693 0
308 -613 -694 0
308 -309 694 0
-308 613 -694 0
-308 309 694 0
309 -587 -695 0
309 -548 695 0
-309 548 695 0
-309 587 -695 0
310 661 -692 0
-310 -661 0
-310 692 0
-246 -273 311 0
-273 311 -312 0
273 -311 0
246 -311 312 0
312 -313 -314 0
54 312 313 0
-312 -313 314 0
-54 -312 313 0
313 515 692 693 0
-313 -515 0
-313 -693 0
-313 -692 0
49 314 -694 0
314 -315 694 0
52 314 694 0
-49 -314 -694 0
-52 -314 315 694 0
315 -525 -695 0
-315 525 0
-315 695 0
257 316 -318 -335 0
316 -317 -318 -335 0
-316 335 0
-316 318 0
-257 -316 317 0
-290 317 726 0
-317 -726 0
290 -317 0
318 -322 756 0
318 319 320 -322 0
-318 322 0
-318 -320 -756 0
-318 -319 -756 0
-249 319 791 0
-319 -791 0
249 -319 0
-242 -249 320 784 0
-242 320 -321 784 0
-320 -784 0
242 -320 0
249 -320 321 0
321 787 788 0
321 -767 788 0
321 755 767 -788 0
-321 -755 -788 0
-321 -767 -788 0
-321 767 -787 788 0
322 -323 -329 0
322 323 329 0
-322 323 -329 0
-322 -323 329 0
323 -325 -327 761 0
323 -324 -325 -327 0
-323 327 0
-323 325 0
-323 324 -761 0
324 763 773 0
324 -739 763 0
-324 -763 0
-324 739 -773 0
325 -326 762 0
-325 -762 0
-325 326 0
326 726 728 730 0
-326 -726 0
-326 -730 0
-326 -728 0
327 328 763 0
327 -328 739 0
327 328 773 0
-327 -328 -739 0
-327 328 -763 -773 0
328 -740 -774 0
-328 740 0
-328 774 0
329 330 332 -333 557 0
-329 333 0
-329 -332 0
-329 -557 0
-329 -330 0
-313 330 331 0
104 313 330 0
-313 -330 -331 0
-104 313 -330 0
-28 315 331 0
315 331 694 0
-315 -331 0
28 -331 -694 0
332 -556 -558 0
332 534 -556 -568 0
-332 556 0
-332 -534 558 0
-332 558 568 0
333 334 558 0
333 -334 534 0
333 334 568 0
-333 -334 -534 0
-333 334 -558 -568 0
334 -535 -569 0
-334 535 0
-334 569 0
246 335 336 879 0
246 335 -336 -879 0
312 335 -336 -879 0
312 335 336 879 0
-335 -336 879 0
-335 336 -879 0
-246 -312 -335 0
336 -515 -722 0
336 -339 515 0
336 -337 515 0
-336 -515 722 0
-336 337 339 515 0
337 -652 692 -693 0
337 338 692 693 0
-337 -692 0
-337 -338 693 0
-337 652 -693 0
338 629 -694 0
338 604 694 -695 0
-338 -629 -694 0
-338 -604 694 0
-338 694 695 0
339 -677 -692 0
-339 677 0
-339 692 0
340 -342 -730 0
340 343 -730 0
340 341 -730 0
-340 730 0
-340 -341 342 -343 0
206 208 341 -730 0
-208 341 -730 798 0
-341 730 0
-208 -341 -798 0
-206 208 -341 0
-319 320 342 0
319 -342 0
-320 -342 0
-279 343 344 -795 0
-279 343 344 745 0
279 -343 0
-343 -344 0
-343 -745 795 0
276 344 792 0
-344 -792 0
-276 -344 0
-239 345 346 -349 354 0
239 345 -346 349 -354 0
-239 345 346 349 -354 0
239 345 -346 -349 354 0
-239 -345 -346 0
239 -345 346 0
-345 349 354 0
-345 -349 -354 0
-313 346 -347 0
40 313 346 0
-313 -346 347 0
-40 313 -346 0
41 347 -694 0
347 -348 694 0
-41 -347 -694 0
-347 348 694 0
-315 348 -604 0
44 315 348 0
-44 315 -348 0
-315 -348 604 0
313 349 -350 0
-313 349 -352 0
-313 349 -351 0
313 -349 350 0
-313 -349 351 352 0
-27 350 -521 0
-27 28 350 0
-28 350 521 594 0
27 28 -350 0
-28 -350 521 -594 0
27 -350 -521 0
315 351 594 694 0
-27 -315 351 694 0
-351 -694 0
315 -351 -594 0
27 -315 -351 0
352 -353 -694 0
-352 694 0
-352 353 0
-27 28 353 0
-28 353 594 0
-28 -353 -594 0
27 28 -353 0
-326 354 -799 0
326 354 355 0
-326 -354 799 0
326 -354 -355 0
-210 355 799 0
-210 355 749 0
210 -355 0
-355 -749 -799 0
257 356 357 362 0
-238 356 -357 -362 0
-238 356 357 362 0
257 356 -357 -362 0
-356 357 -362 0
-356 -357 362 0
238 -257 -356 0
-190 357 -515 0
357 -358 515 0
-357 358 515 0
190 -357 -515 0
-57 358 -692 0
358 -359 692 0
-358 359 692 0
57 -358 -692 0
-74 359 -693 0
359 -360 693 0
-359 360 693 0
74 -359 -693 0
-81 360 -694 0
360 -361 694 0
-360 361 694 0
81 -360 -694 0
-56 361 -695 0
361 553 695 0
56 -361 -695 0
-361 -553 695 0
-276 362 -857 0
362 857 868 0
-362 857 -868 0
276 -362 -857 0
363 -364 -366 -480 -483 0
363 -364 -366 480 483 0
-363 366 0
-363 480 -483 0
-363 364 0
-363 -480 483 0
-291 303 364 -365 0
291 303 317 364 0
-303 -364 0
-291 -364 365 0
291 -317 -364 0
-277 365 728 0
-365 -728 0
277 -365 0
366 -367 468 -469 -474 0
366 -367 -468 469 -474 0
-366 474 0
-366 -468 -469 0
-366 367 0
-366 468 469 0
367 -368 -372 -377 -388 0
-367 388 0
-367 368 0
-367 377 0
-367 372 0
278 -355 368 369 719 0
278 355 368 369 -719 0
-278 -368 0
-355 -368 -719 0
-368 -369 0
355 -368 719 0
220 369 -370 0
-220 -369 0
-369 370 0
-30 370 544 0
370 -371 544 0
-370 -544 0
30 -370 371 0
-313 -331 371 0
313 -371 0
331 -371 0
342 372 373 374 712 0
342 372 373 -374 -712 0
-342 -372 0
-372 -374 712 0
-372 -373 0
-372 374 -712 0
-325 373 -557 0
-325 -330 373 0
325 -373 0
330 -373 557 0
374 -726 -872 0
374 -375 726 0
-374 375 726 0
-374 -726 872 0
375 -728 -851 0
375 -376 728 0
-375 376 728 0
-375 -728 851 0
376 -730 -827 0
376 730 -828 0
-376 730 828 0
-376 -730 827 0
377 -378 -383 -386 -387 0
377 -378 -383 386 387 0
-377 383 0
-377 386 -387 0
-377 378 0
-377 -386 387 0
378 379 380 -381 -382 0
378 -379 -380 -381 -382 0
378 379 380 381 382 0
378 -379 -380 381 382 0
-378 379 -380 0
-378 -379 380 0
-378 381 -382 0
-378 -381 382 0
330 379 -596 0
-379 596 0
-330 -379 0
-326 380 -801 0
-380 801 0
326 -380 0
330 381 -535 0
-381 535 0
-330 -381 0
-326 382 -740 0
-382 740 0
326 -382 0
374 383 -384 710 0
264 383 384 -710 0
264 383 -384 710 0
374 383 384 -710 0
-383 -384 -710 0
-383 384 710 0
-264 -374 -383 0
384 -385 877 0
207 384 -385 752 0
-384 385 0
-207 -384 -877 0
-384 -752 -877 0
-218 385 726 0
-385 -726 0
218 -385 0
330 386 -715 0
-386 715 0
-330 -386 0
-326 387 -875 0
-387 875 0
326 -387 0
388 -389 396 397 -398 0
388 -389 -396 -397 -398 0
-388 398 0
-388 -396 397 0
-388 389 0
-388 396 -397 0
389 -390 -392 -393 0
389 390 392 -393 0
-389 393 0
-389 -390 392 0
-389 390 -392 0
-313 390 -391 0
-5 313 390 0
-313 -390 391 0
5 313 -390 0
-68 391 -694 0
315 391 540 694 0
68 -391 -694 0
-391 -540 694 0
-315 -391 694 0
-302 392 726 728 0
302 -392 0
-392 -728 0
-392 -726 0
-330 385 393 395 0
330 -385 393 394 395 0
-330 -385 -393 0
330 385 -393 0
-393 -395 0
-385 -393 -394 0
325 394 557 0
-394 -557 0
-325 -394 0
362 395 866 0
289 395 866 0
-395 -866 0
-289 -362 -395 0
-27 396 724 0
-396 -724 0
27 -396 0
397 880 881 0
397 803 -881 0
397 -803 881 0
-397 -803 -881 0
-397 803 -880 881 0
398 -399 402 403 -404 0
398 -399 -402 -403 -404 0
-398 404 0
-398 -402 403 0
-398 399 0
-398 402 -403 0
-370 399 400 0
220 399 400 0
-399 -400 0
-220 370 -399 0
276 400 401 0
-274 -276 400 0
56 -276 400 0
276 -400 -401 0
-56 274 -276 -400 0
401 -753 -792 -818 0
401 768 -792 -818 0
-401 818 0
-401 792 0
-401 753 -768 0
330 402 570 0
-402 -570 0
-330 -402 0
-326 403 775 0
-403 -775 0
326 -403 0
404 -405 -443 -455 -460 0
-404 460 0
-404 405 0
-404 455 0
-404 443 0
405 -406 -415 -418 -422 0
-405 422 0
-405 406 0
-405 418 0
-405 415 0
406 -407 -411 -412 -413 0
-406 413 0
-406 407 0
-406 412 0
-406 411 0
276 407 408 -409 0
276 407 -409 -730 0
-407 409 0
-276 -407 0
-407 -408 730 0
408 -745 795 0
-408 745 0
-408 -795 0
409 410 -860 0
409 410 726 846 0
-409 -410 0
-409 -846 860 0
-409 -726 860 0
410 741 750 0
410 -741 742 0
-410 -741 -742 0
-410 741 -750 0
411 811 -815 -835 836 0
-411 -811 0
-411 -836 0
-411 835 0
-411 815 0
412 -778 779 -783 -810 0
-412 810 0
-412 778 0
-412 783 0
-412 -779 0
413 -414 -700 -825 0
413 -414 700 825 0
-413 414 0
-413 -700 825 0
-413 700 -825 0
414 -840 -858 859 -863 0
-414 863 0
-414 840 0
-414 858 0
-414 -859 0
415 -416 417 -731 779 0
415 -416 417 731 -779 0
-415 -417 0
-415 731 779 0
-415 416 0
-415 -731 -779 0
326 416 745 0
326 416 -771 -795 0
-326 -416 0
-416 -745 771 0
-416 -745 795 0
417 738 -739 -740 0
-417 740 0
-417 739 0
-417 -738 0
281 418 419 -420 0
281 418 -420 -748 0
-418 420 0
-281 -418 0
-418 -419 748 0
419 741 -749 0
-419 -741 0
-419 749 0
420 421 749 0
420 421 -741 0
420 421 -752 0
-420 -421 0
-420 741 -749 752 0
302 421 820 0
-421 -820 0
-302 -421 0
422 -423 -431 -437 -440 0
-422 440 0
-422 423 0
-422 437 0
-422 431 0
423 -424 -427 -428 -429 0
-423 429 0
-423 424 0
-423 428 0
-423 427 0
424 425 426 729 -811 0
424 425 426 -729 811 0
-424 -425 0
-424 729 811 0
-424 -426 0
-424 -729 -811 0
425 713 -873 0
-425 -713 0
-425 873 0
426 727 836 0
-426 -727 0
-426 -836 0
427 621 757 0
427 -756 -826 0
427 621 -756 0
427 757 -826 0
-427 -621 826 0
-427 756 -757 0
428 836 -873 0
428 713 727 0
428 727 -873 0
428 713 836 0
-428 -727 -836 0
-428 -713 873 0
429 -430 -837 0
-302 429 -430 728 0
-429 430 0
-429 -728 837 0
302 -429 837 0
430 703 777 826 0
430 -703 -777 826 0
430 -621 703 777 0
430 -621 -703 -777 0
-430 -703 777 0
-430 703 -777 0
-430 621 -826 0
431 -432 -433 -435 -436 0
-431 436 0
-431 432 0
-431 435 0
-431 433 0
432 -701 -704 -705 -706 0
-432 706 0
-432 701 0
-432 705 0
-432 704 0
433 434 -806 0
433 434 601 0
-433 -434 0
-433 -601 806 0
434 750 759 0
-434 -750 0
-434 -759 0
435 720 -723 -725 -758 0
-435 -720 0
-435 758 0
-435 725 0
-435 723 0
436 -707 711 -716 718 0
-436 716 0
-436 -718 0
-436 707 0
-436 -711 0
437 -438 439 -753 0
437 -438 439 758 0
-437 438 0
-437 -439 0
-437 753 -758 0
438 697 758 0
438 -792 -869 0
438 758 -869 0
438 697 -792 0
-438 -758 792 0
-438 -697 869 0
439 -795 812 0
-439 795 0
-439 -812 0
440 441 442 553 758 0
440 441 442 -553 -758 0
-440 -441 0
-440 -553 758 0
-440 -442 0
-440 553 -758 0
441 601 -806 0
-441 -601 0
-441 806 0
442 697 -869 0
-442 -697 0
-442 869 0
289 443 444 -446 -451 0
-289 -443 0
-443 451 0
-443 446 0
-443 -444 0
276 444 843 -844 0
276 444 445 843 0
-444 -843 0
-276 -444 0
-444 -445 844 0
445 809 833 0
-445 -809 0
-445 -833 0
446 -447 449 0
446 449 733 0
-446 -449 0
-446 447 -733 0
447 -735 -736 0
447 735 737 0
447 448 -735 0
-447 735 -737 0
-447 -448 -735 736 0
448 -732 734 0
-448 732 0
-448 -734 0
449 -450 -730 -777 0
449 -450 -775 -777 0
-449 450 0
-449 777 0
-449 730 775 0
-385 450 776 0
-450 -776 0
385 -450 0
275 450 451 -452 -702 0
275 -450 451 -452 702 0
-275 -451 0
-450 -451 -702 0
-451 452 0
450 -451 702 0
452 -453 754 0
452 -453 755 0
452 -453 -753 0
-452 453 0
-452 753 -754 -755 0
453 454 -837 0
453 454 728 820 0
-453 -454 0
-453 -820 837 0
-453 -728 837 0
454 -745 780 0
454 -771 780 0
-454 -780 0
-454 745 771 0
280 455 -456 -843 0
-275 280 455 -456 0
-455 456 0
-280 -455 0
275 -455 843 0
288 -302 456 0
288 456 -457 0
-288 -456 0
302 -456 457 0
457 458 745 -812 0
457 458 -459 -812 0
-457 812 0
-457 -458 0
-457 459 -745 0
458 728 820 0
-458 -728 0
-458 -820 0
459 -744 747 0
459 743 -746 0
459 -744 -746 0
459 743 747 0
-459 746 -747 0
-459 -743 744 0
460 -461 -466 749 0
206 460 -461 -466 0
-460 466 0
-460 461 0
-206 -460 -749 0
461 -462 464 -465 0
-392 461 -462 464 0
-461 462 0
-461 -464 0
392 -461 465 0
301 462 463 0
301 462 741 0
301 462 748 0
-301 -462 0
-462 -463 -741 -748 0
463 -749 -750 751 0
-463 749 0
-463 750 0
-463 -751 0
464 -745 764 0
464 -745 746 765 0
-464 745 0
-464 -746 -764 0
-464 -764 -765 0
465 -726 -860 -869 0
465 -846 -860 -869 0
-465 869 0
-465 860 0
-465 726 846 0
344 466 467 0
-321 466 467 793 0
-466 -467 0
-344 -466 -793 0
321 -344 -466 0
-56 276 467 0
276 299 467 866 0
-276 -467 0
56 -467 -866 0
56 -299 -467 0
468 857 878 0
-468 -857 0
-468 -878 0
469 470 -677 0
469 470 -721 0
469 470 515 0
-469 -470 0
-469 -515 677 721 0
470 -471 515 692 0
-295 470 515 -692 0
-470 -515 0
295 -470 -692 0
-470 471 692 0
-48 471 -693 0
471 -473 693 0
471 -472 693 0
48 -471 -693 0
-471 472 473 693 0
-168 472 694 695 0
168 -472 0
-472 -695 0
-472 -694 0
-50 473 -694 0
-473 694 0
50 -473 0
266 365 474 -475 0
-266 474 -475 791 0
-474 475 0
266 -365 -474 0
-266 -474 -791 0
304 475 476 -479 0
382 475 -476 479 0
382 475 476 -479 0
304 475 -476 479 0
-475 476 479 0
-475 -476 -479 0
-304 -382 -475 0
476 477 478 0
-476 -477 0
-476 -478 0
-313 331 477 -572 0
-313 -331 477 -717 0
313 -477 0
-331 -477 717 0
331 -477 572 0
30 313 478 -572 0
-30 313 478 -717 0
-313 -478 0
30 -478 572 0
-30 -478 717 0
-385 479 -876 0
385 479 -777 0
385 -479 777 0
-385 -479 876 0
-313 480 -481 0
-32 313 480 0
-313 -480 481 0
32 313 -480 0
33 481 -694 0
481 -482 694 0
-33 -481 -694 0
-481 482 694 0
-315 482 -602 0
35 315 482 0
-35 315 -482 0
-315 -482 602 0
483 -726 -854 0
304 483 726 0
-483 -726 854 0
-304 -483 726 0
484 485 -491 0
484 485 486 726 0
-484 -485 0
-484 491 -726 0
-484 -486 491 0
222 -238 485 0
-238 317 485 0
238 -485 0
-222 -317 -485 0
486 487 490 0
204 486 487 -489 0
-486 -487 0
-204 -486 -490 0
-486 489 -490 0
-218 487 850 853 0
218 487 488 850 -853 0
-218 -487 -853 0
218 -487 -488 0
-487 -850 0
218 -487 853 0
-264 -375 488 0
264 -488 0
375 -488 0
-304 489 843 852 0
-291 -304 489 852 0
304 -489 0
-489 -852 0
291 -489 -843 0
218 -488 490 -850 0
-490 850 0
-218 -490 0
488 -490 0
-287 -300 491 -492 -493 0
-491 493 0
-491 492 0
300 -491 0
287 -491 0
204 217 492 0
-217 492 849 0
-204 217 -492 0
-217 -492 -849 0
-218 281 444 493 -726 0
218 -493 0
-444 -493 0
-493 726 0
-281 -493 0
-222 494 495 -498 0
-251 494 495 -498 0
-494 498 0
-494 -495 0
222 251 -494 0
-313 370 495 -496 0
10 313 370 495 0
-370 -495 0
-10 313 -495 0
-313 -495 496 0
-11 496 -694 0
496 -497 694 0
-496 497 694 0
11 -496 -694 0
-13 497 695 0
-12 497 -695 0
12 -497 -695 0
13 -497 695 0
381 498 499 -500 0
-480 498 499 -500 0
-498 500 0
-498 -499 0
-381 480 -498 0
-306 357 499 0
56 -294 -306 499 0
306 -499 0
-56 -357 -499 0
294 -357 -499 0
-390 500 506 -510 0
500 -501 506 -510 0
-500 510 0
-500 -506 0
390 -500 501 0
501 -502 515 -697 0
501 -515 -688 -697 0
-501 697 0
-501 -515 688 0
-501 502 515 0
502 -671 -692 0
502 -505 692 0
502 -503 692 0
-502 671 -692 0
-502 503 505 692 0
503 -632 693 -694 0
503 504 693 694 0
-503 -693 0
-503 -504 694 0
-503 632 -694 0
504 575 695 0
504 607 -695 0
-504 -607 -695 0
-504 -575 695 0
505 -655 -693 0
-505 655 0
-505 693 0
506 508 -570 0
-330 506 508 0
330 506 -507 -570 0
330 -506 570 0
-330 -506 -508 0
-506 507 -508 0
507 571 -572 0
-507 -571 0
-507 572 0
508 -701 -702 0
508 702 703 0
508 509 -702 0
-508 702 -703 0
-508 -509 701 -702 0
509 621 -700 0
-509 -621 0
-509 700 0
-330 -370 510 -512 0
-330 510 511 -512 0
-510 512 0
330 -510 0
370 -510 -511 0
511 -706 -709 711 0
-511 706 0
-511 709 0
-511 -711 0
512 513 -514 696 -704 0
-512 704 0
-512 -513 0
-512 -696 0
-512 514 0
513 -621 -700 -712 0
513 -700 703 -712 0
-513 712 0
-513 700 0
-513 621 -703 0
514 -705 -707 -709 -710 0
-514 710 0
-514 705 0
-514 709 0
-514 707 0
1 2 0
-1 -2 0
882 0

